VER
1

OBJSENSE
MAX

VAR
6 1
L+ 6

PSDVAR
7
6
8
8
8
8
8
8

OBJFCOORD
21
0 0 0 0
0 1 0 0
0 1 1 2
0 2 0 0
0 2 1 1
0 2 2 2
0 3 0 0
0 3 1 -1
0 3 2 0
0 3 3 1
0 4 0 0
0 4 1 2
0 4 2 1
0 4 3 -1
0 4 4 2
0 5 0 0
0 5 1 0
0 5 2 0
0 5 3 0
0 5 4 0
0 5 5 0

INT
6
0
1
2
3
4
5

PSDVARRANK1
1
0

CON
296 6
L= 216
L+ 6
L- 36
L+ 36
L= 1
L- 1

FCOORD
342
0 1 1 1 1.0
1 1 2 2 1.0
2 1 3 3 1.0
3 1 4 4 1.0
4 1 5 5 1.0
5 1 6 6 1.0
6 1 7 7 1.0
7 1 0 0 1.0
7 0 0 0 -0.5
8 1 1 0 0.5
8 0 0 0 -1.0
9 1 2 0 1.0
9 0 1 0 -1.0
10 1 3 0 1.0
10 0 2 0 -1.0
11 1 4 0 1.0
11 0 3 0 -1.0
12 1 5 0 1.0
12 0 4 0 -1.0
13 1 6 0 1.0
13 0 5 0 -1.0
14 1 7 0 0.5
14 0 0 0 -0.5
15 1 2 1 1.0
16 1 3 1 1.0
17 1 3 2 1.0
18 1 4 1 1.0
19 1 4 2 1.0
20 1 4 3 1.0
21 1 5 1 1.0
22 1 5 2 1.0
23 1 5 3 1.0
24 1 5 4 1.0
25 1 6 1 1.0
26 1 6 2 1.0
27 1 6 3 1.0
28 1 6 4 1.0
29 1 6 5 1.0
30 1 7 1 1.0
31 1 7 2 1.0
32 1 7 3 1.0
33 1 7 4 1.0
34 1 7 5 1.0
35 1 7 6 1.0
36 2 1 1 1.0
37 2 2 2 1.0
38 2 3 3 1.0
39 2 4 4 1.0
40 2 5 5 1.0
41 2 6 6 1.0
42 2 7 7 1.0
43 2 0 0 1.0
43 0 1 1 -0.5
44 2 1 0 1.0
44 0 1 0 -1.0
45 2 2 0 0.5
45 0 1 1 -1.0
46 2 3 0 1.0
46 0 2 1 -1.0
47 2 4 0 1.0
47 0 3 1 -1.0
48 2 5 0 1.0
48 0 4 1 -1.0
49 2 6 0 1.0
49 0 5 1 -1.0
50 2 7 0 0.5
50 0 1 1 -0.5
51 2 2 1 1.0
52 2 3 1 1.0
53 2 3 2 1.0
54 2 4 1 1.0
55 2 4 2 1.0
56 2 4 3 1.0
57 2 5 1 1.0
58 2 5 2 1.0
59 2 5 3 1.0
60 2 5 4 1.0
61 2 6 1 1.0
62 2 6 2 1.0
63 2 6 3 1.0
64 2 6 4 1.0
65 2 6 5 1.0
66 2 7 1 1.0
67 2 7 2 1.0
68 2 7 3 1.0
69 2 7 4 1.0
70 2 7 5 1.0
71 2 7 6 1.0
72 3 1 1 1.0
73 3 2 2 1.0
74 3 3 3 1.0
75 3 4 4 1.0
76 3 5 5 1.0
77 3 6 6 1.0
78 3 7 7 1.0
79 3 0 0 1.0
79 0 2 2 -0.5
80 3 1 0 1.0
80 0 2 0 -1.0
81 3 2 0 1.0
81 0 2 1 -1.0
82 3 3 0 0.5
82 0 2 2 -1.0
83 3 4 0 1.0
83 0 3 2 -1.0
84 3 5 0 1.0
84 0 4 2 -1.0
85 3 6 0 1.0
85 0 5 2 -1.0
86 3 7 0 0.5
86 0 2 2 -0.5
87 3 2 1 1.0
88 3 3 1 1.0
89 3 3 2 1.0
90 3 4 1 1.0
91 3 4 2 1.0
92 3 4 3 1.0
93 3 5 1 1.0
94 3 5 2 1.0
95 3 5 3 1.0
96 3 5 4 1.0
97 3 6 1 1.0
98 3 6 2 1.0
99 3 6 3 1.0
100 3 6 4 1.0
101 3 6 5 1.0
102 3 7 1 1.0
103 3 7 2 1.0
104 3 7 3 1.0
105 3 7 4 1.0
106 3 7 5 1.0
107 3 7 6 1.0
108 4 1 1 1.0
109 4 2 2 1.0
110 4 3 3 1.0
111 4 4 4 1.0
112 4 5 5 1.0
113 4 6 6 1.0
114 4 7 7 1.0
115 4 0 0 1.0
115 0 3 3 -0.5
116 4 1 0 1.0
116 0 3 0 -1.0
117 4 2 0 1.0
117 0 3 1 -1.0
118 4 3 0 1.0
118 0 3 2 -1.0
119 4 4 0 0.5
119 0 3 3 -1.0
120 4 5 0 1.0
120 0 4 3 -1.0
121 4 6 0 1.0
121 0 5 3 -1.0
122 4 7 0 0.5
122 0 3 3 -0.5
123 4 2 1 1.0
124 4 3 1 1.0
125 4 3 2 1.0
126 4 4 1 1.0
127 4 4 2 1.0
128 4 4 3 1.0
129 4 5 1 1.0
130 4 5 2 1.0
131 4 5 3 1.0
132 4 5 4 1.0
133 4 6 1 1.0
134 4 6 2 1.0
135 4 6 3 1.0
136 4 6 4 1.0
137 4 6 5 1.0
138 4 7 1 1.0
139 4 7 2 1.0
140 4 7 3 1.0
141 4 7 4 1.0
142 4 7 5 1.0
143 4 7 6 1.0
144 5 1 1 1.0
145 5 2 2 1.0
146 5 3 3 1.0
147 5 4 4 1.0
148 5 5 5 1.0
149 5 6 6 1.0
150 5 7 7 1.0
151 5 0 0 1.0
151 0 4 4 -0.5
152 5 1 0 1.0
152 0 4 0 -1.0
153 5 2 0 1.0
153 0 4 1 -1.0
154 5 3 0 1.0
154 0 4 2 -1.0
155 5 4 0 1.0
155 0 4 3 -1.0
156 5 5 0 0.5
156 0 4 4 -1.0
157 5 6 0 1.0
157 0 5 4 -1.0
158 5 7 0 0.5
158 0 4 4 -0.5
159 5 2 1 1.0
160 5 3 1 1.0
161 5 3 2 1.0
162 5 4 1 1.0
163 5 4 2 1.0
164 5 4 3 1.0
165 5 5 1 1.0
166 5 5 2 1.0
167 5 5 3 1.0
168 5 5 4 1.0
169 5 6 1 1.0
170 5 6 2 1.0
171 5 6 3 1.0
172 5 6 4 1.0
173 5 6 5 1.0
174 5 7 1 1.0
175 5 7 2 1.0
176 5 7 3 1.0
177 5 7 4 1.0
178 5 7 5 1.0
179 5 7 6 1.0
180 6 1 1 1.0
181 6 2 2 1.0
182 6 3 3 1.0
183 6 4 4 1.0
184 6 5 5 1.0
185 6 6 6 1.0
186 6 7 7 1.0
187 6 0 0 1.0
187 0 5 5 -0.5
188 6 1 0 1.0
188 0 5 0 -1.0
189 6 2 0 1.0
189 0 5 1 -1.0
190 6 3 0 1.0
190 0 5 2 -1.0
191 6 4 0 1.0
191 0 5 3 -1.0
192 6 5 0 1.0
192 0 5 4 -1.0
193 6 6 0 0.5
193 0 5 5 -1.0
194 6 7 0 0.5
194 0 5 5 -0.5
195 6 2 1 1.0
196 6 3 1 1.0
197 6 3 2 1.0
198 6 4 1 1.0
199 6 4 2 1.0
200 6 4 3 1.0
201 6 5 1 1.0
202 6 5 2 1.0
203 6 5 3 1.0
204 6 5 4 1.0
205 6 6 1 1.0
206 6 6 2 1.0
207 6 6 3 1.0
208 6 6 4 1.0
209 6 6 5 1.0
210 6 7 1 1.0
211 6 7 2 1.0
212 6 7 3 1.0
213 6 7 4 1.0
214 6 7 5 1.0
215 6 7 6 1.0
222 0 0 0 -1.0
223 0 1 0 -0.5
224 0 2 0 -0.5
225 0 3 0 -0.5
226 0 4 0 -0.5
227 0 5 0 -0.5
228 0 1 0 -0.5
229 0 1 1 -1.0
230 0 2 1 -0.5
231 0 3 1 -0.5
232 0 4 1 -0.5
233 0 5 1 -0.5
234 0 2 0 -0.5
235 0 2 1 -0.5
236 0 2 2 -1.0
237 0 3 2 -0.5
238 0 4 2 -0.5
239 0 5 2 -0.5
240 0 3 0 -0.5
241 0 3 1 -0.5
242 0 3 2 -0.5
243 0 3 3 -1.0
244 0 4 3 -0.5
245 0 5 3 -0.5
246 0 4 0 -0.5
247 0 4 1 -0.5
248 0 4 2 -0.5
249 0 4 3 -0.5
250 0 4 4 -1.0
251 0 5 4 -0.5
252 0 5 0 -0.5
253 0 5 1 -0.5
254 0 5 2 -0.5
255 0 5 3 -0.5
256 0 5 4 -0.5
257 0 5 5 -1.0
258 0 0 0 -1.0
259 0 1 0 -0.5
260 0 2 0 -0.5
261 0 3 0 -0.5
262 0 4 0 -0.5
263 0 5 0 -0.5
264 0 1 0 -0.5
265 0 1 1 -1.0
266 0 2 1 -0.5
267 0 3 1 -0.5
268 0 4 1 -0.5
269 0 5 1 -0.5
270 0 2 0 -0.5
271 0 2 1 -0.5
272 0 2 2 -1.0
273 0 3 2 -0.5
274 0 4 2 -0.5
275 0 5 2 -0.5
276 0 3 0 -0.5
277 0 3 1 -0.5
278 0 3 2 -0.5
279 0 3 3 -1.0
280 0 4 3 -0.5
281 0 5 3 -0.5
282 0 4 0 -0.5
283 0 4 1 -0.5
284 0 4 2 -0.5
285 0 4 3 -0.5
286 0 4 4 -1.0
287 0 5 4 -0.5
288 0 5 0 -0.5
289 0 5 1 -0.5
290 0 5 2 -0.5
291 0 5 3 -0.5
292 0 5 4 -0.5
293 0 5 5 -1.0
294 0 0 0 1.0
294 0 1 1 1.0
294 0 2 2 1.0
294 0 3 3 1.0
294 0 4 4 1.0
294 0 5 5 1.0

ACOORD
96
7 0 -0.5
14 0 0.5
43 1 -0.5
50 1 0.5
79 2 -0.5
86 2 0.5
115 3 -0.5
122 3 0.5
151 4 -0.5
158 4 0.5
187 5 -0.5
194 5 0.5
216 0 -1.0
217 1 -1.0
218 2 -1.0
219 3 -1.0
220 4 -1.0
221 5 -1.0
222 0 -1.0
223 1 -0.5
224 2 -0.5
225 3 -0.5
226 4 -0.5
227 5 -0.5
228 0 -0.5
229 1 -1.0
230 2 -0.5
231 3 -0.5
232 4 -0.5
233 5 -0.5
234 0 -0.5
235 1 -0.5
236 2 -1.0
237 3 -0.5
238 4 -0.5
239 5 -0.5
240 0 -0.5
241 1 -0.5
242 2 -0.5
243 3 -1.0
244 4 -0.5
245 5 -0.5
246 0 -0.5
247 1 -0.5
248 2 -0.5
249 3 -0.5
250 4 -1.0
251 5 -0.5
252 0 -0.5
253 1 -0.5
254 2 -0.5
255 3 -0.5
256 4 -0.5
257 5 -1.0
258 0 1.0
259 1 0.5
260 2 0.5
261 3 0.5
262 4 0.5
263 5 0.5
264 0 0.5
265 1 1.0
266 2 0.5
267 3 0.5
268 4 0.5
269 5 0.5
270 0 0.5
271 1 0.5
272 2 1.0
273 3 0.5
274 4 0.5
275 5 0.5
276 0 0.5
277 1 0.5
278 2 0.5
279 3 1.0
280 4 0.5
281 5 0.5
282 0 0.5
283 1 0.5
284 2 0.5
285 3 0.5
286 4 1.0
287 5 0.5
288 0 0.5
289 1 0.5
290 2 0.5
291 3 0.5
292 4 0.5
293 5 1.0
295 0 1.0
295 1 1.0
295 2 1.0
295 3 1.0
295 4 1.0
295 5 1.0

BCOORD
50
0 -1.0
1 -1.0
2 -1.0
3 -1.0
4 -1.0
5 -1.0
6 -1.0
36 -1.0
37 -1.0
38 -1.0
39 -1.0
40 -1.0
41 -1.0
42 -1.0
72 -1.0
73 -1.0
74 -1.0
75 -1.0
76 -1.0
77 -1.0
78 -1.0
108 -1.0
109 -1.0
110 -1.0
111 -1.0
112 -1.0
113 -1.0
114 -1.0
144 -1.0
145 -1.0
146 -1.0
147 -1.0
148 -1.0
149 -1.0
150 -1.0
180 -1.0
181 -1.0
182 -1.0
183 -1.0
184 -1.0
185 -1.0
186 -1.0
216 1.0
217 1.0
218 1.0
219 1.0
220 1.0
221 1.0
294 -1.0
295 -2

